
  17    4
  10   10   10   10

   0   0   0   0   0   3 2 4 10 
   1  10  10  10  10   3 12 6 3 
   7  10  10  10  10   3 8 7 5 
  10  10  10  10  10   3 8 7 5 
   1  10  10  10  10   4 16 14 11 9 
   5  10  10  10  10   2 8 7 
   8  10  10  10  10   3 15 14 13 
   7  10  10  10  10   2 14 13 
   9  10  10  10  10   2 15 13 
   6  10  10  10  10   2 16 13 
   3  10  10  10  10   1 13 
   3  10  10  10  10   1 13 
   6  10  10  10  10   1 17
   1  10  10  10  10   1 17
   7  10  10  10  10   1 17
   6  10  10  10  10   1 17
   0   0   0   0   0   0 
